p cnf 150 764
1 2 3 4 5 0
6 7 8 9 10 0
11 12 13 14 15 0
16 17 18 19 20 0
21 22 23 24 25 0
26 27 28 29 30 0
31 32 33 34 35 0
36 37 38 39 40 0
41 42 43 44 45 0
46 47 48 49 50 0
51 52 53 54 55 0
56 57 58 59 60 0
61 62 63 64 65 0
66 67 68 69 70 0
71 72 73 74 75 0
76 77 78 79 80 0
81 82 83 84 85 0
86 87 88 89 90 0
91 92 93 94 95 0
96 97 98 99 100 0
101 102 103 104 105 0
106 107 108 109 110 0
111 112 113 114 115 0
116 117 118 119 120 0
121 122 123 124 125 0
126 127 128 129 130 0
131 132 133 134 135 0
136 137 138 139 140 0
141 142 143 144 145 0
146 147 148 149 150 0
-1 -2 0
-1 -3 0
-1 -4 0
-1 -5 0
-2 -3 0
-2 -4 0
-2 -5 0
-3 -4 0
-3 -5 0
-4 -5 0
-6 -7 0
-6 -8 0
-6 -9 0
-6 -10 0
-7 -8 0
-7 -9 0
-7 -10 0
-8 -9 0
-8 -10 0
-9 -10 0
-11 -12 0
-11 -13 0
-11 -14 0
-11 -15 0
-12 -13 0
-12 -14 0
-12 -15 0
-13 -14 0
-13 -15 0
-14 -15 0
-16 -17 0
-16 -18 0
-16 -19 0
-16 -20 0
-17 -18 0
-17 -19 0
-17 -20 0
-18 -19 0
-18 -20 0
-19 -20 0
-21 -22 0
-21 -23 0
-21 -24 0
-21 -25 0
-22 -23 0
-22 -24 0
-22 -25 0
-23 -24 0
-23 -25 0
-24 -25 0
-26 -27 0
-26 -28 0
-26 -29 0
-26 -30 0
-27 -28 0
-27 -29 0
-27 -30 0
-28 -29 0
-28 -30 0
-29 -30 0
-31 -32 0
-31 -33 0
-31 -34 0
-31 -35 0
-32 -33 0
-32 -34 0
-32 -35 0
-33 -34 0
-33 -35 0
-34 -35 0
-36 -37 0
-36 -38 0
-36 -39 0
-36 -40 0
-37 -38 0
-37 -39 0
-37 -40 0
-38 -39 0
-38 -40 0
-39 -40 0
-41 -42 0
-41 -43 0
-41 -44 0
-41 -45 0
-42 -43 0
-42 -44 0
-42 -45 0
-43 -44 0
-43 -45 0
-44 -45 0
-46 -47 0
-46 -48 0
-46 -49 0
-46 -50 0
-47 -48 0
-47 -49 0
-47 -50 0
-48 -49 0
-48 -50 0
-49 -50 0
-51 -52 0
-51 -53 0
-51 -54 0
-51 -55 0
-52 -53 0
-52 -54 0
-52 -55 0
-53 -54 0
-53 -55 0
-54 -55 0
-56 -57 0
-56 -58 0
-56 -59 0
-56 -60 0
-57 -58 0
-57 -59 0
-57 -60 0
-58 -59 0
-58 -60 0
-59 -60 0
-61 -62 0
-61 -63 0
-61 -64 0
-61 -65 0
-62 -63 0
-62 -64 0
-62 -65 0
-63 -64 0
-63 -65 0
-64 -65 0
-66 -67 0
-66 -68 0
-66 -69 0
-66 -70 0
-67 -68 0
-67 -69 0
-67 -70 0
-68 -69 0
-68 -70 0
-69 -70 0
-71 -72 0
-71 -73 0
-71 -74 0
-71 -75 0
-72 -73 0
-72 -74 0
-72 -75 0
-73 -74 0
-73 -75 0
-74 -75 0
-76 -77 0
-76 -78 0
-76 -79 0
-76 -80 0
-77 -78 0
-77 -79 0
-77 -80 0
-78 -79 0
-78 -80 0
-79 -80 0
-81 -82 0
-81 -83 0
-81 -84 0
-81 -85 0
-82 -83 0
-82 -84 0
-82 -85 0
-83 -84 0
-83 -85 0
-84 -85 0
-86 -87 0
-86 -88 0
-86 -89 0
-86 -90 0
-87 -88 0
-87 -89 0
-87 -90 0
-88 -89 0
-88 -90 0
-89 -90 0
-91 -92 0
-91 -93 0
-91 -94 0
-91 -95 0
-92 -93 0
-92 -94 0
-92 -95 0
-93 -94 0
-93 -95 0
-94 -95 0
-96 -97 0
-96 -98 0
-96 -99 0
-96 -100 0
-97 -98 0
-97 -99 0
-97 -100 0
-98 -99 0
-98 -100 0
-99 -100 0
-101 -102 0
-101 -103 0
-101 -104 0
-101 -105 0
-102 -103 0
-102 -104 0
-102 -105 0
-103 -104 0
-103 -105 0
-104 -105 0
-106 -107 0
-106 -108 0
-106 -109 0
-106 -110 0
-107 -108 0
-107 -109 0
-107 -110 0
-108 -109 0
-108 -110 0
-109 -110 0
-111 -112 0
-111 -113 0
-111 -114 0
-111 -115 0
-112 -113 0
-112 -114 0
-112 -115 0
-113 -114 0
-113 -115 0
-114 -115 0
-116 -117 0
-116 -118 0
-116 -119 0
-116 -120 0
-117 -118 0
-117 -119 0
-117 -120 0
-118 -119 0
-118 -120 0
-119 -120 0
-121 -122 0
-121 -123 0
-121 -124 0
-121 -125 0
-122 -123 0
-122 -124 0
-122 -125 0
-123 -124 0
-123 -125 0
-124 -125 0
-126 -127 0
-126 -128 0
-126 -129 0
-126 -130 0
-127 -128 0
-127 -129 0
-127 -130 0
-128 -129 0
-128 -130 0
-129 -130 0
-131 -132 0
-131 -133 0
-131 -134 0
-131 -135 0
-132 -133 0
-132 -134 0
-132 -135 0
-133 -134 0
-133 -135 0
-134 -135 0
-136 -137 0
-136 -138 0
-136 -139 0
-136 -140 0
-137 -138 0
-137 -139 0
-137 -140 0
-138 -139 0
-138 -140 0
-139 -140 0
-141 -142 0
-141 -143 0
-141 -144 0
-141 -145 0
-142 -143 0
-142 -144 0
-142 -145 0
-143 -144 0
-143 -145 0
-144 -145 0
-146 -147 0
-146 -148 0
-146 -149 0
-146 -150 0
-147 -148 0
-147 -149 0
-147 -150 0
-148 -149 0
-148 -150 0
-149 -150 0
-3 -9 0
-4 -9 0
-3 -11 0
-2 -14 0
-2 -16 0
-2 -18 0
-3 -38 0
-3 -40 0
-5 -48 0
-4 -46 0
-5 -51 0
-2 -55 0
-3 -58 0
-1 -56 0
-1 -68 0
-2 -67 0
-1 -85 0
-5 -82 0
-2 -94 0
-4 -94 0
-5 -104 0
-4 -104 0
-1 -113 0
-2 -113 0
-3 -118 0
-5 -118 0
-2 -138 0
-4 -140 0
-5 -150 0
-2 -149 0
-8 -47 0
-9 -48 0
-6 -60 0
-7 -57 0
-9 -63 0
-6 -63 0
-9 -74 0
-6 -75 0
-10 -79 0
-9 -80 0
-9 -89 0
-8 -88 0
-10 -105 0
-6 -102 0
-8 -114 0
-10 -113 0
-6 -131 0
-6 -134 0
-6 -138 0
-8 -137 0
-8 -149 0
-9 -150 0
-11 -28 0
-14 -26 0
-15 -50 0
-14 -49 0
-13 -54 0
-12 -51 0
-12 -71 0
-12 -72 0
-15 -83 0
-15 -85 0
-15 -88 0
-11 -87 0
-14 -94 0
-13 -92 0
-12 -98 0
-15 -97 0
-12 -111 0
-11 -113 0
-11 -127 0
-15 -128 0
-12 -131 0
-11 -132 0
-14 -138 0
-14 -136 0
-11 -142 0
-12 -144 0
-15 -146 0
-12 -149 0
-18 -25 0
-17 -22 0
-19 -29 0
-17 -27 0
-18 -37 0
-18 -39 0
-16 -50 0
-19 -49 0
-17 -59 0
-20 -59 0
-19 -64 0
-18 -63 0
-20 -66 0
-16 -68 0
-19 -72 0
-20 -72 0
-18 -78 0
-20 -76 0
-17 -85 0
-16 -83 0
-16 -99 0
-18 -97 0
-20 -107 0
-18 -106 0
-20 -112 0
-18 -113 0
-18 -124 0
-19 -124 0
-18 -139 0
-20 -138 0
-25 -28 0
-24 -29 0
-21 -33 0
-23 -35 0
-23 -49 0
-22 -48 0
-25 -58 0
-22 -58 0
-21 -63 0
-21 -61 0
-24 -68 0
-22 -67 0
-23 -73 0
-21 -75 0
-25 -77 0
-23 -78 0
-23 -81 0
-23 -83 0
-21 -90 0
-25 -87 0
-22 -93 0
-22 -94 0
-25 -97 0
-22 -96 0
-22 -105 0
-23 -102 0
-24 -115 0
-22 -113 0
-22 -127 0
-22 -128 0
-30 -31 0
-27 -34 0
-26 -39 0
-27 -38 0
-27 -60 0
-28 -57 0
-27 -63 0
-29 -63 0
-26 -71 0
-28 -73 0
-27 -79 0
-27 -77 0
-30 -83 0
-30 -84 0
-26 -89 0
-30 -89 0
-27 -120 0
-27 -119 0
-30 -125 0
-26 -124 0
-29 -127 0
-26 -126 0
-26 -139 0
-26 -137 0
-28 -143 0
-30 -145 0
-29 -146 0
-28 -150 0
-33 -37 0
-31 -39 0
-35 -62 0
-31 -61 0
-34 -71 0
-31 -72 0
-33 -80 0
-34 -77 0
-31 -81 0
-33 -85 0
-35 -94 0
-34 -92 0
-34 -110 0
-31 -109 0
-34 -144 0
-32 -144 0
-35 -149 0
-33 -149 0
-39 -44 0
-39 -41 0
-37 -47 0
-39 -48 0
-40 -53 0
-39 -52 0
-36 -63 0
-36 -62 0
-40 -70 0
-40 -68 0
-36 -76 0
-36 -77 0
-37 -86 0
-40 -86 0
-40 -91 0
-36 -92 0
-37 -99 0
-38 -96 0
-38 -132 0
-39 -133 0
-40 -139 0
-40 -138 0
-41 -55 0
-44 -54 0
-44 -62 0
-43 -65 0
-42 -72 0
-45 -73 0
-42 -111 0
-45 -115 0
-44 -131 0
-41 -131 0
-50 -56 0
-50 -60 0
-49 -67 0
-49 -66 0
-47 -71 0
-48 -73 0
-50 -85 0
-46 -85 0
-47 -86 0
-46 -89 0
-50 -98 0
-47 -99 0
-50 -103 0
-46 -102 0
-50 -121 0
-47 -121 0
-49 -136 0
-50 -139 0
-49 -143 0
-47 -142 0
-48 -147 0
-49 -148 0
-51 -58 0
-53 -58 0
-52 -65 0
-53 -61 0
-53 -75 0
-55 -73 0
-53 -78 0
-53 -80 0
-53 -95 0
-52 -91 0
-52 -102 0
-51 -103 0
-52 -109 0
-51 -110 0
-53 -111 0
-53 -113 0
-54 -126 0
-51 -128 0
-54 -132 0
-54 -133 0
-51 -138 0
-52 -138 0
-54 -147 0
-52 -150 0
-58 -61 0
-56 -63 0
-60 -75 0
-57 -75 0
-60 -93 0
-60 -91 0
-60 -103 0
-56 -101 0
-60 -121 0
-58 -124 0
-59 -145 0
-60 -143 0
-57 -147 0
-59 -146 0
-65 -68 0
-63 -69 0
-64 -84 0
-63 -84 0
-63 -86 0
-61 -90 0
-64 -103 0
-61 -105 0
-62 -107 0
-62 -110 0
-62 -114 0
-65 -115 0
-62 -116 0
-63 -116 0
-62 -134 0
-64 -135 0
-61 -145 0
-64 -144 0
-65 -150 0
-65 -147 0
-70 -75 0
-70 -72 0
-69 -84 0
-67 -85 0
-67 -90 0
-66 -87 0
-70 -91 0
-67 -91 0
-70 -100 0
-70 -96 0
-70 -117 0
-67 -117 0
-70 -125 0
-67 -121 0
-66 -129 0
-68 -128 0
-66 -140 0
-66 -138 0
-72 -78 0
-74 -78 0
-72 -98 0
-73 -99 0
-73 -113 0
-72 -114 0
-75 -121 0
-75 -124 0
-74 -129 0
-72 -129 0
-74 -132 0
-73 -133 0
-75 -138 0
-73 -137 0
-73 -144 0
-75 -142 0
-77 -82 0
-78 -81 0
-80 -86 0
-77 -88 0
-80 -93 0
-79 -93 0
-76 -100 0
-79 -96 0
-80 -105 0
-76 -105 0
-79 -107 0
-78 -110 0
-76 -113 0
-80 -111 0
-78 -131 0
-76 -132 0
-80 -140 0
-80 -137 0
-84 -95 0
-81 -91 0
-84 -100 0
-85 -100 0
-83 -113 0
-81 -111 0
-81 -118 0
-84 -117 0
-81 -130 0
-81 -128 0
-81 -132 0
-84 -135 0
-84 -144 0
-83 -145 0
-88 -95 0
-89 -91 0
-86 -96 0
-90 -96 0
-88 -107 0
-86 -107 0
-86 -115 0
-88 -114 0
-87 -116 0
-89 -116 0
-88 -125 0
-88 -121 0
-89 -128 0
-88 -126 0
-88 -136 0
-86 -136 0
-88 -141 0
-89 -141 0
-86 -146 0
-88 -149 0
-95 -107 0
-93 -110 0
-92 -112 0
-94 -112 0
-91 -129 0
-95 -126 0
-93 -131 0
-92 -131 0
-99 -120 0
-97 -119 0
-100 -134 0
-96 -134 0
-103 -108 0
-102 -109 0
-101 -118 0
-103 -118 0
-101 -124 0
-103 -123 0
-103 -131 0
-101 -135 0
-105 -140 0
-105 -136 0
-103 -147 0
-104 -150 0
-110 -113 0
-109 -114 0
-106 -147 0
-109 -148 0
-115 -116 0
-111 -117 0
-112 -122 0
-114 -125 0
-118 -127 0
-117 -127 0
-120 -140 0
-116 -139 0
-116 -142 0
-120 -141 0
-120 -146 0
-116 -148 0
-121 -136 0
-124 -140 0
-121 -141 0
-123 -145 0
-129 -149 0
-128 -149 0
-138 -144 0
-138 -142 0
-144 -147 0
-145 -150 0
